(set-logic LIA)

(declare-const z Int)
(declare-const z! Int)
(declare-const y Int)
(declare-const y! Int)
(declare-const tmp Int)
(declare-const tmp! Int)
(declare-const c Int)
(declare-const c! Int)

(declare-const z_38 Int)
(declare-const z_30 Int)
(declare-const z_28 Int)
(declare-const y_0 Int)
(declare-const c_36 Int)
(declare-const c_31 Int)
(declare-const c_25 Int)

(define-fun inv-f((c Int)(tmp Int)(y Int)(z Int)) Bool
